job_count = 10 ;
duration = [|19, 14, 3|19, 5, 8|29, 17, 7|18, 18, 2|25, 4, 4|13, 13, 8|28, 5, 2|14, 8, 5|22, 9, 5|27, 8, 5|] ;
machine_count = 3 ;
cost = [|13, 21, 46|13, 37, 36|12, 21, 50|14, 21, 47|10, 28, 32|19, 20, 30|15, 33, 43|16, 28, 40|12, 28, 33|11, 22, 54|] ;
deadline = [22, 22, 22, 22, 22, 22, 22, 22, 22, 22] ;
release = [0, 0, 0, 0, 0, 0, 0, 0, 0, 0] ;
resource = [|2, 2, 2|2, 2, 2|6, 6, 6|2, 2, 2|1, 1, 1|8, 8, 8|3, 3, 3|9, 9, 9|9, 9, 9|6, 6, 6|] ;
capacities = [10, 10, 10] ;
